p cnf 100 30
x -1 5 6 -7 8 9 14 -15 -16 -20 -21 26 -28 29 -30 31 32 33 -36 37 -38 -40 -42 43 48 -50 51 -57 -63 -64 -65 67 69 71 72 -73 -81 82 89 -90 91 92 -93 -95 96 98 99 -100 0
x 1 -2 -3 7 9 -13 14 -23 -28 -29 -31 32 -36 45 -46 48 49 -50 -51 -52 -54 57 -61 62 -63 68 70 72 73 76 -77 78 79 80 83 85 -86 -88 91 95 96 0
x -2 -3 4 -5 -6 8 -9 10 15 -19 21 24 29 -33 34 -35 38 -39 40 42 44 45 -46 -48 52 -53 -55 60 -61 62 64 -65 -67 69 71 73 -75 79 86 -90 -91 -93 -94 95 96 97 98 -99 0
x 1 2 3 -4 -7 -9 10 -13 14 16 18 20 -21 -23 -26 27 28 30 32 34 35 -37 -39 40 41 -42 -44 49 50 -51 -55 56 63 66 -67 -68 69 -77 81 82 85 86 -88 90 -91 -97 0
x -1 2 -3 4 -5 -7 9 -11 -12 13 15 -16 20 -23 -24 -26 -30 -31 -32 34 -36 38 39 40 41 42 44 45 46 48 49 51 53 54 56 -58 -60 -62 64 -65 -67 -71 -74 -76 77 -80 81 82 83 -84 85 91 -92 -95 96 -97 99 100 0
x -1 2 4 7 10 -11 15 -17 -18 -19 -21 24 29 30 -31 36 41 -42 43 -45 47 -48 50 51 -53 -55 57 58 60 -61 -64 67 68 69 -71 -72 -73 76 -77 -78 79 -80 -81 82 -84 90 -91 95 96 98 -99 0
x -1 -5 -6 7 -8 -9 12 -13 -19 -20 -21 -25 -27 -30 -35 36 -38 -39 40 -41 -42 44 -45 46 48 49 -50 -52 -54 -55 56 -57 -60 -61 -66 -69 70 71 -72 73 -74 75 -76 -78 -80 -81 82 84 85 86 -91 92 93 -97 99 0
x -2 -3 -7 8 -9 11 12 13 -17 -19 -20 -21 23 25 26 27 28 -29 30 31 33 -34 -35 39 40 41 43 -44 -48 51 -52 -53 54 -58 59 -60 62 66 67 68 71 73 74 78 -83 89 91 92 -93 0
x 4 -5 7 -10 -11 -15 -19 20 22 25 -26 28 32 -38 41 -44 -45 -46 48 -52 -53 54 -55 56 58 61 -63 64 66 -67 -70 71 73 74 75 77 78 83 85 86 87 94 97 98 -99 -100 0
x 5 -9 -10 13 -15 -18 19 20 22 24 26 27 -29 -36 37 -38 -44 47 49 -51 54 -56 -59 60 61 -66 -67 -71 72 -73 -75 77 -79 83 86 -88 90 -91 93 94 -95 -96 97 -98 0
x -2 -3 -4 8 12 14 15 16 -19 22 -23 -25 26 -28 30 32 -33 34 -37 -38 -39 -40 42 43 -44 -48 -51 52 53 54 56 58 62 -64 66 -67 70 71 -72 74 78 80 84 -87 -91 94 95 -96 97 98 -99 0
x 2 -3 7 8 -12 -13 -15 -17 -20 22 23 26 28 29 30 -32 -36 -40 -42 -44 -45 -46 48 49 51 57 58 61 62 -63 64 65 -66 67 70 72 76 82 84 -86 -87 90 91 94 95 100 0
x 1 4 8 12 -14 15 17 -18 22 -23 24 -28 -33 -38 39 -45 -46 47 -48 -49 -50 55 -61 62 66 -68 -72 73 -74 -76 -80 81 -82 -83 -85 -86 87 -88 89 -92 -93 95 96 -97 98 0
x 1 -3 4 -8 -9 -11 -12 13 14 15 17 19 -20 24 -25 -27 30 31 35 38 41 -42 -43 -44 45 -49 -51 -53 -55 -57 59 60 61 -68 70 76 -78 79 -80 82 84 -85 88 91 -93 -97 0
x -1 2 -3 6 -8 -9 -10 13 -15 -16 -17 18 -20 24 -27 30 31 32 34 37 39 -41 -42 45 -46 -47 48 49 50 53 55 62 64 65 -67 -72 73 74 75 77 80 -83 -84 87 -88 94 95 -98 0
x -1 -5 -7 -8 -10 -11 -12 14 15 -17 -19 -20 22 25 -27 29 -32 34 36 -37 -38 -39 -42 -43 46 -48 50 -51 -54 -55 56 -59 -62 -66 -67 -69 -71 73 -74 75 76 -78 -80 -81 83 -85 -89 -90 91 -92 -97 -99 0
x -2 -3 -5 -7 -10 11 -12 13 -18 21 -24 -26 -28 29 -32 -33 36 37 -39 41 -43 -44 48 53 57 62 -65 -66 -67 -69 -71 72 -73 76 -77 -81 83 -85 -89 91 92 -94 98 0
x 3 -5 -7 8 11 15 -17 -21 -23 -28 -31 32 35 -36 39 40 41 42 -44 45 -47 -48 52 54 -56 -57 -58 -59 61 62 63 -65 -66 -67 68 -74 -75 -78 79 -82 83 -87 -88 89 -90 92 -93 -94 -97 -100 0
x 1 3 -4 7 -8 -11 -12 -15 -16 -17 18 21 -22 -24 -25 26 27 28 29 30 31 33 35 -36 -39 40 41 44 -46 49 51 52 -53 55 -57 58 -59 60 -65 67 -69 -70 -71 72 -73 -74 76 -78 -80 -81 82 -88 90 -92 93 -94 -96 0
x 2 8 -13 -15 -17 -18 19 -20 21 -22 -26 27 -28 29 34 35 -37 38 39 41 42 44 46 -47 48 50 52 53 54 -55 57 -59 60 -62 66 72 75 -78 79 80 81 -82 83 -85 86 87 -91 93 -96 98 0
x -1 3 4 -5 7 8 -9 10 11 -13 -14 -16 18 -19 -21 -23 24 -25 -28 -29 31 32 34 41 44 47 -48 49 -50 52 57 -58 -60 62 -63 66 -69 71 -72 73 -81 -84 85 -86 87 -91 -94 -96 -98 -100 0
x -2 -5 -6 -7 -10 -14 -15 16 18 -20 -24 -26 -28 -29 31 -33 34 36 38 -39 -40 -41 -42 44 45 -46 49 50 -53 55 -56 -57 58 59 -60 -62 -63 -64 69 70 -72 78 -79 80 81 82 -86 -88 -90 -92 93 -95 98 0
x 8 -9 -12 -18 -19 20 -25 -26 27 -28 29 -30 31 32 -33 34 35 -36 -37 38 39 41 -43 46 -47 -49 -50 53 -55 56 57 58 -59 -64 -66 -68 -69 -71 76 -77 -79 86 -87 89 95 -97 -98 -99 0
x 1 -2 -3 -5 -7 8 9 10 -17 18 -23 -29 -31 32 -33 -35 38 -42 44 -47 48 51 -52 53 -55 -61 62 -64 65 69 -70 71 -72 73 -74 75 76 -78 81 -82 84 -85 86 87 88 -91 94 95 -97 -99 100 0
x 1 -9 -10 -11 12 -13 15 18 -20 -22 25 -26 28 -30 32 -38 -39 -40 41 42 44 46 47 -49 -50 -51 52 53 54 57 59 60 61 -62 63 -64 -67 -70 -73 75 -77 78 79 -80 82 83 87 92 -93 94 -95 97 -98 -99 100 0
x -1 -4 5 -6 -7 -9 11 14 18 -21 -23 -25 26 27 30 31 -32 -34 38 44 -45 -46 -47 48 -50 -52 53 59 61 62 63 -65 66 68 72 74 -75 -76 -77 80 81 -84 85 -86 -87 88 -89 92 -93 -94 -96 99 0
x 1 -2 5 -7 -8 12 17 -18 20 25 26 -31 32 33 -35 -46 -50 53 -54 -55 56 -58 59 -60 -62 -64 -66 -67 68 70 72 -73 77 -78 -81 -86 -89 90 93 -94 97 0
x -3 -4 7 9 -10 -15 17 19 20 -21 22 -24 25 26 -28 30 -31 36 37 39 -40 -41 43 47 -48 49 -51 52 -53 59 -61 62 -64 66 67 -68 -70 -71 -78 -80 82 83 -88 -91 92 93 -96 -97 98 -100 0
x -2 3 6 9 11 12 -15 17 -18 20 21 22 -24 29 -31 -34 40 -41 42 -43 -47 -48 49 -50 -53 56 -57 60 -62 63 -71 72 73 -75 77 79 -80 -81 83 -84 -85 -86 92 -94 97 99 -100 0
x -1 -5 6 9 10 -12 15 18 20 -21 -22 24 -25 27 -28 -29 -31 32 33 -40 -41 42 -43 -44 -47 50 -52 -53 55 -56 -57 -59 -63 65 67 68 70 -74 76 77 78 79 -84 -85 87 88 89 92 -93 -95 96 97 100 0
g -20